p tw 64 111
5 9
5 12
5 20
5 18
5 10
2 13
2 18
4 12
10 14
10 20
10 15
10 62
42 47
42 43
42 58
42 45
42 46
42 44
42 60
42 55
42 53
24 35
24 38
24 40
24 31
25 31
25 37
52 56
14 19
14 15
20 64
57 59
57 60
29 61
29 34
61 64
61 63
61 62
1 63
1 6
1 20
1 3
6 18
21 62
21 31
21 37
21 29
21 25
21 27
33 63
28 31
38 39
38 40
9 19
53 62
41 60
41 54
41 52
45 56
45 60
45 48
45 47
32 33
34 39
22 33
44 48
44 45
44 52
44 57
44 51
59 61
27 34
12 14
12 17
12 16
49 58
7 9
7 14
3 5
3 61
3 6
35 37
48 63
50 57
16 19
31 33
31 64
31 39
31 40
11 12
11 16
43 64
43 53
43 60
43 48
43 45
26 31
26 27
23 33
23 36
23 31
8 10
8 17
58 59
36 37
30 35
30 31
30 40
19 20
47 54
62 63
